clingo version 5.7.1
Reading from campionatoRamiro.cl
Solving...
UNKNOWN

INTERRUPTED  : 1
Models       : 0+
Calls        : 1
Time         : 21.387s (Solving: 20.82s 1st Model: 0.00s Unsat: 0.00s)
CPU Time     : 21.109s
